c *********************************
c * Circuit generated by BenCGen
c *
c * Parity_442
c *
c * Ports with 1 gate(s): 1
c * Ports with 2 gate(s): 442
c * Total gates: 443
c *********************************
p cnf 885 1769
1 445 0
-1 -445 0
1 -444 0
445 -444 0
-1 -445 444 0
1 2 -446 0
-1 2 446 0
1 -2 446 0
-1 -2 -446 0
3 4 -447 0
-3 4 447 0
3 -4 447 0
-3 -4 -447 0
5 6 -448 0
-5 6 448 0
5 -6 448 0
-5 -6 -448 0
7 8 -449 0
-7 8 449 0
7 -8 449 0
-7 -8 -449 0
9 10 -450 0
-9 10 450 0
9 -10 450 0
-9 -10 -450 0
11 12 -451 0
-11 12 451 0
11 -12 451 0
-11 -12 -451 0
13 14 -452 0
-13 14 452 0
13 -14 452 0
-13 -14 -452 0
15 16 -453 0
-15 16 453 0
15 -16 453 0
-15 -16 -453 0
17 18 -454 0
-17 18 454 0
17 -18 454 0
-17 -18 -454 0
19 20 -455 0
-19 20 455 0
19 -20 455 0
-19 -20 -455 0
21 22 -456 0
-21 22 456 0
21 -22 456 0
-21 -22 -456 0
23 24 -457 0
-23 24 457 0
23 -24 457 0
-23 -24 -457 0
25 26 -458 0
-25 26 458 0
25 -26 458 0
-25 -26 -458 0
27 28 -459 0
-27 28 459 0
27 -28 459 0
-27 -28 -459 0
29 30 -460 0
-29 30 460 0
29 -30 460 0
-29 -30 -460 0
31 32 -461 0
-31 32 461 0
31 -32 461 0
-31 -32 -461 0
33 34 -462 0
-33 34 462 0
33 -34 462 0
-33 -34 -462 0
35 36 -463 0
-35 36 463 0
35 -36 463 0
-35 -36 -463 0
37 38 -464 0
-37 38 464 0
37 -38 464 0
-37 -38 -464 0
39 40 -465 0
-39 40 465 0
39 -40 465 0
-39 -40 -465 0
41 42 -466 0
-41 42 466 0
41 -42 466 0
-41 -42 -466 0
43 44 -467 0
-43 44 467 0
43 -44 467 0
-43 -44 -467 0
45 46 -468 0
-45 46 468 0
45 -46 468 0
-45 -46 -468 0
47 48 -469 0
-47 48 469 0
47 -48 469 0
-47 -48 -469 0
49 50 -470 0
-49 50 470 0
49 -50 470 0
-49 -50 -470 0
51 52 -471 0
-51 52 471 0
51 -52 471 0
-51 -52 -471 0
53 54 -472 0
-53 54 472 0
53 -54 472 0
-53 -54 -472 0
55 56 -473 0
-55 56 473 0
55 -56 473 0
-55 -56 -473 0
57 58 -474 0
-57 58 474 0
57 -58 474 0
-57 -58 -474 0
59 60 -475 0
-59 60 475 0
59 -60 475 0
-59 -60 -475 0
61 62 -476 0
-61 62 476 0
61 -62 476 0
-61 -62 -476 0
63 64 -477 0
-63 64 477 0
63 -64 477 0
-63 -64 -477 0
65 66 -478 0
-65 66 478 0
65 -66 478 0
-65 -66 -478 0
67 68 -479 0
-67 68 479 0
67 -68 479 0
-67 -68 -479 0
69 70 -480 0
-69 70 480 0
69 -70 480 0
-69 -70 -480 0
71 72 -481 0
-71 72 481 0
71 -72 481 0
-71 -72 -481 0
73 74 -482 0
-73 74 482 0
73 -74 482 0
-73 -74 -482 0
75 76 -483 0
-75 76 483 0
75 -76 483 0
-75 -76 -483 0
77 78 -484 0
-77 78 484 0
77 -78 484 0
-77 -78 -484 0
79 80 -485 0
-79 80 485 0
79 -80 485 0
-79 -80 -485 0
81 82 -486 0
-81 82 486 0
81 -82 486 0
-81 -82 -486 0
83 84 -487 0
-83 84 487 0
83 -84 487 0
-83 -84 -487 0
85 86 -488 0
-85 86 488 0
85 -86 488 0
-85 -86 -488 0
87 88 -489 0
-87 88 489 0
87 -88 489 0
-87 -88 -489 0
89 90 -490 0
-89 90 490 0
89 -90 490 0
-89 -90 -490 0
91 92 -491 0
-91 92 491 0
91 -92 491 0
-91 -92 -491 0
93 94 -492 0
-93 94 492 0
93 -94 492 0
-93 -94 -492 0
95 96 -493 0
-95 96 493 0
95 -96 493 0
-95 -96 -493 0
97 98 -494 0
-97 98 494 0
97 -98 494 0
-97 -98 -494 0
99 100 -495 0
-99 100 495 0
99 -100 495 0
-99 -100 -495 0
101 102 -496 0
-101 102 496 0
101 -102 496 0
-101 -102 -496 0
103 104 -497 0
-103 104 497 0
103 -104 497 0
-103 -104 -497 0
105 106 -498 0
-105 106 498 0
105 -106 498 0
-105 -106 -498 0
107 108 -499 0
-107 108 499 0
107 -108 499 0
-107 -108 -499 0
109 110 -500 0
-109 110 500 0
109 -110 500 0
-109 -110 -500 0
111 112 -501 0
-111 112 501 0
111 -112 501 0
-111 -112 -501 0
113 114 -502 0
-113 114 502 0
113 -114 502 0
-113 -114 -502 0
115 116 -503 0
-115 116 503 0
115 -116 503 0
-115 -116 -503 0
117 118 -504 0
-117 118 504 0
117 -118 504 0
-117 -118 -504 0
119 120 -505 0
-119 120 505 0
119 -120 505 0
-119 -120 -505 0
121 122 -506 0
-121 122 506 0
121 -122 506 0
-121 -122 -506 0
123 124 -507 0
-123 124 507 0
123 -124 507 0
-123 -124 -507 0
125 126 -508 0
-125 126 508 0
125 -126 508 0
-125 -126 -508 0
127 128 -509 0
-127 128 509 0
127 -128 509 0
-127 -128 -509 0
129 130 -510 0
-129 130 510 0
129 -130 510 0
-129 -130 -510 0
131 132 -511 0
-131 132 511 0
131 -132 511 0
-131 -132 -511 0
133 134 -512 0
-133 134 512 0
133 -134 512 0
-133 -134 -512 0
135 136 -513 0
-135 136 513 0
135 -136 513 0
-135 -136 -513 0
137 138 -514 0
-137 138 514 0
137 -138 514 0
-137 -138 -514 0
139 140 -515 0
-139 140 515 0
139 -140 515 0
-139 -140 -515 0
141 142 -516 0
-141 142 516 0
141 -142 516 0
-141 -142 -516 0
143 144 -517 0
-143 144 517 0
143 -144 517 0
-143 -144 -517 0
145 146 -518 0
-145 146 518 0
145 -146 518 0
-145 -146 -518 0
147 148 -519 0
-147 148 519 0
147 -148 519 0
-147 -148 -519 0
149 150 -520 0
-149 150 520 0
149 -150 520 0
-149 -150 -520 0
151 152 -521 0
-151 152 521 0
151 -152 521 0
-151 -152 -521 0
153 154 -522 0
-153 154 522 0
153 -154 522 0
-153 -154 -522 0
155 156 -523 0
-155 156 523 0
155 -156 523 0
-155 -156 -523 0
157 158 -524 0
-157 158 524 0
157 -158 524 0
-157 -158 -524 0
159 160 -525 0
-159 160 525 0
159 -160 525 0
-159 -160 -525 0
161 162 -526 0
-161 162 526 0
161 -162 526 0
-161 -162 -526 0
163 164 -527 0
-163 164 527 0
163 -164 527 0
-163 -164 -527 0
165 166 -528 0
-165 166 528 0
165 -166 528 0
-165 -166 -528 0
167 168 -529 0
-167 168 529 0
167 -168 529 0
-167 -168 -529 0
169 170 -530 0
-169 170 530 0
169 -170 530 0
-169 -170 -530 0
171 172 -531 0
-171 172 531 0
171 -172 531 0
-171 -172 -531 0
173 174 -532 0
-173 174 532 0
173 -174 532 0
-173 -174 -532 0
175 176 -533 0
-175 176 533 0
175 -176 533 0
-175 -176 -533 0
177 178 -534 0
-177 178 534 0
177 -178 534 0
-177 -178 -534 0
179 180 -535 0
-179 180 535 0
179 -180 535 0
-179 -180 -535 0
181 182 -536 0
-181 182 536 0
181 -182 536 0
-181 -182 -536 0
183 184 -537 0
-183 184 537 0
183 -184 537 0
-183 -184 -537 0
185 186 -538 0
-185 186 538 0
185 -186 538 0
-185 -186 -538 0
187 188 -539 0
-187 188 539 0
187 -188 539 0
-187 -188 -539 0
189 190 -540 0
-189 190 540 0
189 -190 540 0
-189 -190 -540 0
191 192 -541 0
-191 192 541 0
191 -192 541 0
-191 -192 -541 0
193 194 -542 0
-193 194 542 0
193 -194 542 0
-193 -194 -542 0
195 196 -543 0
-195 196 543 0
195 -196 543 0
-195 -196 -543 0
197 198 -544 0
-197 198 544 0
197 -198 544 0
-197 -198 -544 0
199 200 -545 0
-199 200 545 0
199 -200 545 0
-199 -200 -545 0
201 202 -546 0
-201 202 546 0
201 -202 546 0
-201 -202 -546 0
203 204 -547 0
-203 204 547 0
203 -204 547 0
-203 -204 -547 0
205 206 -548 0
-205 206 548 0
205 -206 548 0
-205 -206 -548 0
207 208 -549 0
-207 208 549 0
207 -208 549 0
-207 -208 -549 0
209 210 -550 0
-209 210 550 0
209 -210 550 0
-209 -210 -550 0
211 212 -551 0
-211 212 551 0
211 -212 551 0
-211 -212 -551 0
213 214 -552 0
-213 214 552 0
213 -214 552 0
-213 -214 -552 0
215 216 -553 0
-215 216 553 0
215 -216 553 0
-215 -216 -553 0
217 218 -554 0
-217 218 554 0
217 -218 554 0
-217 -218 -554 0
219 220 -555 0
-219 220 555 0
219 -220 555 0
-219 -220 -555 0
221 222 -556 0
-221 222 556 0
221 -222 556 0
-221 -222 -556 0
223 224 -557 0
-223 224 557 0
223 -224 557 0
-223 -224 -557 0
225 226 -558 0
-225 226 558 0
225 -226 558 0
-225 -226 -558 0
227 228 -559 0
-227 228 559 0
227 -228 559 0
-227 -228 -559 0
229 230 -560 0
-229 230 560 0
229 -230 560 0
-229 -230 -560 0
231 232 -561 0
-231 232 561 0
231 -232 561 0
-231 -232 -561 0
233 234 -562 0
-233 234 562 0
233 -234 562 0
-233 -234 -562 0
235 236 -563 0
-235 236 563 0
235 -236 563 0
-235 -236 -563 0
237 238 -564 0
-237 238 564 0
237 -238 564 0
-237 -238 -564 0
239 240 -565 0
-239 240 565 0
239 -240 565 0
-239 -240 -565 0
241 242 -566 0
-241 242 566 0
241 -242 566 0
-241 -242 -566 0
243 244 -567 0
-243 244 567 0
243 -244 567 0
-243 -244 -567 0
245 246 -568 0
-245 246 568 0
245 -246 568 0
-245 -246 -568 0
247 248 -569 0
-247 248 569 0
247 -248 569 0
-247 -248 -569 0
249 250 -570 0
-249 250 570 0
249 -250 570 0
-249 -250 -570 0
251 252 -571 0
-251 252 571 0
251 -252 571 0
-251 -252 -571 0
253 254 -572 0
-253 254 572 0
253 -254 572 0
-253 -254 -572 0
255 256 -573 0
-255 256 573 0
255 -256 573 0
-255 -256 -573 0
257 258 -574 0
-257 258 574 0
257 -258 574 0
-257 -258 -574 0
259 260 -575 0
-259 260 575 0
259 -260 575 0
-259 -260 -575 0
261 262 -576 0
-261 262 576 0
261 -262 576 0
-261 -262 -576 0
263 264 -577 0
-263 264 577 0
263 -264 577 0
-263 -264 -577 0
265 266 -578 0
-265 266 578 0
265 -266 578 0
-265 -266 -578 0
267 268 -579 0
-267 268 579 0
267 -268 579 0
-267 -268 -579 0
269 270 -580 0
-269 270 580 0
269 -270 580 0
-269 -270 -580 0
271 272 -581 0
-271 272 581 0
271 -272 581 0
-271 -272 -581 0
273 274 -582 0
-273 274 582 0
273 -274 582 0
-273 -274 -582 0
275 276 -583 0
-275 276 583 0
275 -276 583 0
-275 -276 -583 0
277 278 -584 0
-277 278 584 0
277 -278 584 0
-277 -278 -584 0
279 280 -585 0
-279 280 585 0
279 -280 585 0
-279 -280 -585 0
281 282 -586 0
-281 282 586 0
281 -282 586 0
-281 -282 -586 0
283 284 -587 0
-283 284 587 0
283 -284 587 0
-283 -284 -587 0
285 286 -588 0
-285 286 588 0
285 -286 588 0
-285 -286 -588 0
287 288 -589 0
-287 288 589 0
287 -288 589 0
-287 -288 -589 0
289 290 -590 0
-289 290 590 0
289 -290 590 0
-289 -290 -590 0
291 292 -591 0
-291 292 591 0
291 -292 591 0
-291 -292 -591 0
293 294 -592 0
-293 294 592 0
293 -294 592 0
-293 -294 -592 0
295 296 -593 0
-295 296 593 0
295 -296 593 0
-295 -296 -593 0
297 298 -594 0
-297 298 594 0
297 -298 594 0
-297 -298 -594 0
299 300 -595 0
-299 300 595 0
299 -300 595 0
-299 -300 -595 0
301 302 -596 0
-301 302 596 0
301 -302 596 0
-301 -302 -596 0
303 304 -597 0
-303 304 597 0
303 -304 597 0
-303 -304 -597 0
305 306 -598 0
-305 306 598 0
305 -306 598 0
-305 -306 -598 0
307 308 -599 0
-307 308 599 0
307 -308 599 0
-307 -308 -599 0
309 310 -600 0
-309 310 600 0
309 -310 600 0
-309 -310 -600 0
311 312 -601 0
-311 312 601 0
311 -312 601 0
-311 -312 -601 0
313 314 -602 0
-313 314 602 0
313 -314 602 0
-313 -314 -602 0
315 316 -603 0
-315 316 603 0
315 -316 603 0
-315 -316 -603 0
317 318 -604 0
-317 318 604 0
317 -318 604 0
-317 -318 -604 0
319 320 -605 0
-319 320 605 0
319 -320 605 0
-319 -320 -605 0
321 322 -606 0
-321 322 606 0
321 -322 606 0
-321 -322 -606 0
323 324 -607 0
-323 324 607 0
323 -324 607 0
-323 -324 -607 0
325 326 -608 0
-325 326 608 0
325 -326 608 0
-325 -326 -608 0
327 328 -609 0
-327 328 609 0
327 -328 609 0
-327 -328 -609 0
329 330 -610 0
-329 330 610 0
329 -330 610 0
-329 -330 -610 0
331 332 -611 0
-331 332 611 0
331 -332 611 0
-331 -332 -611 0
333 334 -612 0
-333 334 612 0
333 -334 612 0
-333 -334 -612 0
335 336 -613 0
-335 336 613 0
335 -336 613 0
-335 -336 -613 0
337 338 -614 0
-337 338 614 0
337 -338 614 0
-337 -338 -614 0
339 340 -615 0
-339 340 615 0
339 -340 615 0
-339 -340 -615 0
341 342 -616 0
-341 342 616 0
341 -342 616 0
-341 -342 -616 0
343 344 -617 0
-343 344 617 0
343 -344 617 0
-343 -344 -617 0
345 346 -618 0
-345 346 618 0
345 -346 618 0
-345 -346 -618 0
347 348 -619 0
-347 348 619 0
347 -348 619 0
-347 -348 -619 0
349 350 -620 0
-349 350 620 0
349 -350 620 0
-349 -350 -620 0
351 352 -621 0
-351 352 621 0
351 -352 621 0
-351 -352 -621 0
353 354 -622 0
-353 354 622 0
353 -354 622 0
-353 -354 -622 0
355 356 -623 0
-355 356 623 0
355 -356 623 0
-355 -356 -623 0
357 358 -624 0
-357 358 624 0
357 -358 624 0
-357 -358 -624 0
359 360 -625 0
-359 360 625 0
359 -360 625 0
-359 -360 -625 0
361 362 -626 0
-361 362 626 0
361 -362 626 0
-361 -362 -626 0
363 364 -627 0
-363 364 627 0
363 -364 627 0
-363 -364 -627 0
365 366 -628 0
-365 366 628 0
365 -366 628 0
-365 -366 -628 0
367 368 -629 0
-367 368 629 0
367 -368 629 0
-367 -368 -629 0
369 370 -630 0
-369 370 630 0
369 -370 630 0
-369 -370 -630 0
371 372 -631 0
-371 372 631 0
371 -372 631 0
-371 -372 -631 0
373 374 -632 0
-373 374 632 0
373 -374 632 0
-373 -374 -632 0
375 376 -633 0
-375 376 633 0
375 -376 633 0
-375 -376 -633 0
377 378 -634 0
-377 378 634 0
377 -378 634 0
-377 -378 -634 0
379 380 -635 0
-379 380 635 0
379 -380 635 0
-379 -380 -635 0
381 382 -636 0
-381 382 636 0
381 -382 636 0
-381 -382 -636 0
383 384 -637 0
-383 384 637 0
383 -384 637 0
-383 -384 -637 0
385 386 -638 0
-385 386 638 0
385 -386 638 0
-385 -386 -638 0
387 388 -639 0
-387 388 639 0
387 -388 639 0
-387 -388 -639 0
389 390 -640 0
-389 390 640 0
389 -390 640 0
-389 -390 -640 0
391 392 -641 0
-391 392 641 0
391 -392 641 0
-391 -392 -641 0
393 394 -642 0
-393 394 642 0
393 -394 642 0
-393 -394 -642 0
395 396 -643 0
-395 396 643 0
395 -396 643 0
-395 -396 -643 0
397 398 -644 0
-397 398 644 0
397 -398 644 0
-397 -398 -644 0
399 400 -645 0
-399 400 645 0
399 -400 645 0
-399 -400 -645 0
401 402 -646 0
-401 402 646 0
401 -402 646 0
-401 -402 -646 0
403 404 -647 0
-403 404 647 0
403 -404 647 0
-403 -404 -647 0
405 406 -648 0
-405 406 648 0
405 -406 648 0
-405 -406 -648 0
407 408 -649 0
-407 408 649 0
407 -408 649 0
-407 -408 -649 0
409 410 -650 0
-409 410 650 0
409 -410 650 0
-409 -410 -650 0
411 412 -651 0
-411 412 651 0
411 -412 651 0
-411 -412 -651 0
413 414 -652 0
-413 414 652 0
413 -414 652 0
-413 -414 -652 0
415 416 -653 0
-415 416 653 0
415 -416 653 0
-415 -416 -653 0
417 418 -654 0
-417 418 654 0
417 -418 654 0
-417 -418 -654 0
419 420 -655 0
-419 420 655 0
419 -420 655 0
-419 -420 -655 0
421 422 -656 0
-421 422 656 0
421 -422 656 0
-421 -422 -656 0
423 424 -657 0
-423 424 657 0
423 -424 657 0
-423 -424 -657 0
425 426 -658 0
-425 426 658 0
425 -426 658 0
-425 -426 -658 0
427 428 -659 0
-427 428 659 0
427 -428 659 0
-427 -428 -659 0
429 430 -660 0
-429 430 660 0
429 -430 660 0
-429 -430 -660 0
431 432 -661 0
-431 432 661 0
431 -432 661 0
-431 -432 -661 0
433 434 -662 0
-433 434 662 0
433 -434 662 0
-433 -434 -662 0
435 436 -663 0
-435 436 663 0
435 -436 663 0
-435 -436 -663 0
437 438 -664 0
-437 438 664 0
437 -438 664 0
-437 -438 -664 0
439 440 -665 0
-439 440 665 0
439 -440 665 0
-439 -440 -665 0
441 442 -666 0
-441 442 666 0
441 -442 666 0
-441 -442 -666 0
446 447 -667 0
-446 447 667 0
446 -447 667 0
-446 -447 -667 0
448 449 -668 0
-448 449 668 0
448 -449 668 0
-448 -449 -668 0
450 451 -669 0
-450 451 669 0
450 -451 669 0
-450 -451 -669 0
452 453 -670 0
-452 453 670 0
452 -453 670 0
-452 -453 -670 0
454 455 -671 0
-454 455 671 0
454 -455 671 0
-454 -455 -671 0
456 457 -672 0
-456 457 672 0
456 -457 672 0
-456 -457 -672 0
458 459 -673 0
-458 459 673 0
458 -459 673 0
-458 -459 -673 0
460 461 -674 0
-460 461 674 0
460 -461 674 0
-460 -461 -674 0
462 463 -675 0
-462 463 675 0
462 -463 675 0
-462 -463 -675 0
464 465 -676 0
-464 465 676 0
464 -465 676 0
-464 -465 -676 0
466 467 -677 0
-466 467 677 0
466 -467 677 0
-466 -467 -677 0
468 469 -678 0
-468 469 678 0
468 -469 678 0
-468 -469 -678 0
470 471 -679 0
-470 471 679 0
470 -471 679 0
-470 -471 -679 0
472 473 -680 0
-472 473 680 0
472 -473 680 0
-472 -473 -680 0
474 475 -681 0
-474 475 681 0
474 -475 681 0
-474 -475 -681 0
476 477 -682 0
-476 477 682 0
476 -477 682 0
-476 -477 -682 0
478 479 -683 0
-478 479 683 0
478 -479 683 0
-478 -479 -683 0
480 481 -684 0
-480 481 684 0
480 -481 684 0
-480 -481 -684 0
482 483 -685 0
-482 483 685 0
482 -483 685 0
-482 -483 -685 0
484 485 -686 0
-484 485 686 0
484 -485 686 0
-484 -485 -686 0
486 487 -687 0
-486 487 687 0
486 -487 687 0
-486 -487 -687 0
488 489 -688 0
-488 489 688 0
488 -489 688 0
-488 -489 -688 0
490 491 -689 0
-490 491 689 0
490 -491 689 0
-490 -491 -689 0
492 493 -690 0
-492 493 690 0
492 -493 690 0
-492 -493 -690 0
494 495 -691 0
-494 495 691 0
494 -495 691 0
-494 -495 -691 0
496 497 -692 0
-496 497 692 0
496 -497 692 0
-496 -497 -692 0
498 499 -693 0
-498 499 693 0
498 -499 693 0
-498 -499 -693 0
500 501 -694 0
-500 501 694 0
500 -501 694 0
-500 -501 -694 0
502 503 -695 0
-502 503 695 0
502 -503 695 0
-502 -503 -695 0
504 505 -696 0
-504 505 696 0
504 -505 696 0
-504 -505 -696 0
506 507 -697 0
-506 507 697 0
506 -507 697 0
-506 -507 -697 0
508 509 -698 0
-508 509 698 0
508 -509 698 0
-508 -509 -698 0
510 511 -699 0
-510 511 699 0
510 -511 699 0
-510 -511 -699 0
512 513 -700 0
-512 513 700 0
512 -513 700 0
-512 -513 -700 0
514 515 -701 0
-514 515 701 0
514 -515 701 0
-514 -515 -701 0
516 517 -702 0
-516 517 702 0
516 -517 702 0
-516 -517 -702 0
518 519 -703 0
-518 519 703 0
518 -519 703 0
-518 -519 -703 0
520 521 -704 0
-520 521 704 0
520 -521 704 0
-520 -521 -704 0
522 523 -705 0
-522 523 705 0
522 -523 705 0
-522 -523 -705 0
524 525 -706 0
-524 525 706 0
524 -525 706 0
-524 -525 -706 0
526 527 -707 0
-526 527 707 0
526 -527 707 0
-526 -527 -707 0
528 529 -708 0
-528 529 708 0
528 -529 708 0
-528 -529 -708 0
530 531 -709 0
-530 531 709 0
530 -531 709 0
-530 -531 -709 0
532 533 -710 0
-532 533 710 0
532 -533 710 0
-532 -533 -710 0
534 535 -711 0
-534 535 711 0
534 -535 711 0
-534 -535 -711 0
536 537 -712 0
-536 537 712 0
536 -537 712 0
-536 -537 -712 0
538 539 -713 0
-538 539 713 0
538 -539 713 0
-538 -539 -713 0
540 541 -714 0
-540 541 714 0
540 -541 714 0
-540 -541 -714 0
542 543 -715 0
-542 543 715 0
542 -543 715 0
-542 -543 -715 0
544 545 -716 0
-544 545 716 0
544 -545 716 0
-544 -545 -716 0
546 547 -717 0
-546 547 717 0
546 -547 717 0
-546 -547 -717 0
548 549 -718 0
-548 549 718 0
548 -549 718 0
-548 -549 -718 0
550 551 -719 0
-550 551 719 0
550 -551 719 0
-550 -551 -719 0
552 553 -720 0
-552 553 720 0
552 -553 720 0
-552 -553 -720 0
554 555 -721 0
-554 555 721 0
554 -555 721 0
-554 -555 -721 0
556 557 -722 0
-556 557 722 0
556 -557 722 0
-556 -557 -722 0
558 559 -723 0
-558 559 723 0
558 -559 723 0
-558 -559 -723 0
560 561 -724 0
-560 561 724 0
560 -561 724 0
-560 -561 -724 0
562 563 -725 0
-562 563 725 0
562 -563 725 0
-562 -563 -725 0
564 565 -726 0
-564 565 726 0
564 -565 726 0
-564 -565 -726 0
566 567 -727 0
-566 567 727 0
566 -567 727 0
-566 -567 -727 0
568 569 -728 0
-568 569 728 0
568 -569 728 0
-568 -569 -728 0
570 571 -729 0
-570 571 729 0
570 -571 729 0
-570 -571 -729 0
572 573 -730 0
-572 573 730 0
572 -573 730 0
-572 -573 -730 0
574 575 -731 0
-574 575 731 0
574 -575 731 0
-574 -575 -731 0
576 577 -732 0
-576 577 732 0
576 -577 732 0
-576 -577 -732 0
578 579 -733 0
-578 579 733 0
578 -579 733 0
-578 -579 -733 0
580 581 -734 0
-580 581 734 0
580 -581 734 0
-580 -581 -734 0
582 583 -735 0
-582 583 735 0
582 -583 735 0
-582 -583 -735 0
584 585 -736 0
-584 585 736 0
584 -585 736 0
-584 -585 -736 0
586 587 -737 0
-586 587 737 0
586 -587 737 0
-586 -587 -737 0
588 589 -738 0
-588 589 738 0
588 -589 738 0
-588 -589 -738 0
590 591 -739 0
-590 591 739 0
590 -591 739 0
-590 -591 -739 0
592 593 -740 0
-592 593 740 0
592 -593 740 0
-592 -593 -740 0
594 595 -741 0
-594 595 741 0
594 -595 741 0
-594 -595 -741 0
596 597 -742 0
-596 597 742 0
596 -597 742 0
-596 -597 -742 0
598 599 -743 0
-598 599 743 0
598 -599 743 0
-598 -599 -743 0
600 601 -744 0
-600 601 744 0
600 -601 744 0
-600 -601 -744 0
602 603 -745 0
-602 603 745 0
602 -603 745 0
-602 -603 -745 0
604 605 -746 0
-604 605 746 0
604 -605 746 0
-604 -605 -746 0
606 607 -747 0
-606 607 747 0
606 -607 747 0
-606 -607 -747 0
608 609 -748 0
-608 609 748 0
608 -609 748 0
-608 -609 -748 0
610 611 -749 0
-610 611 749 0
610 -611 749 0
-610 -611 -749 0
612 613 -750 0
-612 613 750 0
612 -613 750 0
-612 -613 -750 0
614 615 -751 0
-614 615 751 0
614 -615 751 0
-614 -615 -751 0
616 617 -752 0
-616 617 752 0
616 -617 752 0
-616 -617 -752 0
618 619 -753 0
-618 619 753 0
618 -619 753 0
-618 -619 -753 0
620 621 -754 0
-620 621 754 0
620 -621 754 0
-620 -621 -754 0
622 623 -755 0
-622 623 755 0
622 -623 755 0
-622 -623 -755 0
624 625 -756 0
-624 625 756 0
624 -625 756 0
-624 -625 -756 0
626 627 -757 0
-626 627 757 0
626 -627 757 0
-626 -627 -757 0
628 629 -758 0
-628 629 758 0
628 -629 758 0
-628 -629 -758 0
630 631 -759 0
-630 631 759 0
630 -631 759 0
-630 -631 -759 0
632 633 -760 0
-632 633 760 0
632 -633 760 0
-632 -633 -760 0
634 635 -761 0
-634 635 761 0
634 -635 761 0
-634 -635 -761 0
636 637 -762 0
-636 637 762 0
636 -637 762 0
-636 -637 -762 0
638 639 -763 0
-638 639 763 0
638 -639 763 0
-638 -639 -763 0
640 641 -764 0
-640 641 764 0
640 -641 764 0
-640 -641 -764 0
642 643 -765 0
-642 643 765 0
642 -643 765 0
-642 -643 -765 0
644 645 -766 0
-644 645 766 0
644 -645 766 0
-644 -645 -766 0
646 647 -767 0
-646 647 767 0
646 -647 767 0
-646 -647 -767 0
648 649 -768 0
-648 649 768 0
648 -649 768 0
-648 -649 -768 0
650 651 -769 0
-650 651 769 0
650 -651 769 0
-650 -651 -769 0
652 653 -770 0
-652 653 770 0
652 -653 770 0
-652 -653 -770 0
654 655 -771 0
-654 655 771 0
654 -655 771 0
-654 -655 -771 0
656 657 -772 0
-656 657 772 0
656 -657 772 0
-656 -657 -772 0
658 659 -773 0
-658 659 773 0
658 -659 773 0
-658 -659 -773 0
660 661 -774 0
-660 661 774 0
660 -661 774 0
-660 -661 -774 0
662 663 -775 0
-662 663 775 0
662 -663 775 0
-662 -663 -775 0
664 665 -776 0
-664 665 776 0
664 -665 776 0
-664 -665 -776 0
667 668 -777 0
-667 668 777 0
667 -668 777 0
-667 -668 -777 0
669 670 -778 0
-669 670 778 0
669 -670 778 0
-669 -670 -778 0
671 672 -779 0
-671 672 779 0
671 -672 779 0
-671 -672 -779 0
673 674 -780 0
-673 674 780 0
673 -674 780 0
-673 -674 -780 0
675 676 -781 0
-675 676 781 0
675 -676 781 0
-675 -676 -781 0
677 678 -782 0
-677 678 782 0
677 -678 782 0
-677 -678 -782 0
679 680 -783 0
-679 680 783 0
679 -680 783 0
-679 -680 -783 0
681 682 -784 0
-681 682 784 0
681 -682 784 0
-681 -682 -784 0
683 684 -785 0
-683 684 785 0
683 -684 785 0
-683 -684 -785 0
685 686 -786 0
-685 686 786 0
685 -686 786 0
-685 -686 -786 0
687 688 -787 0
-687 688 787 0
687 -688 787 0
-687 -688 -787 0
689 690 -788 0
-689 690 788 0
689 -690 788 0
-689 -690 -788 0
691 692 -789 0
-691 692 789 0
691 -692 789 0
-691 -692 -789 0
693 694 -790 0
-693 694 790 0
693 -694 790 0
-693 -694 -790 0
695 696 -791 0
-695 696 791 0
695 -696 791 0
-695 -696 -791 0
697 698 -792 0
-697 698 792 0
697 -698 792 0
-697 -698 -792 0
699 700 -793 0
-699 700 793 0
699 -700 793 0
-699 -700 -793 0
701 702 -794 0
-701 702 794 0
701 -702 794 0
-701 -702 -794 0
703 704 -795 0
-703 704 795 0
703 -704 795 0
-703 -704 -795 0
705 706 -796 0
-705 706 796 0
705 -706 796 0
-705 -706 -796 0
707 708 -797 0
-707 708 797 0
707 -708 797 0
-707 -708 -797 0
709 710 -798 0
-709 710 798 0
709 -710 798 0
-709 -710 -798 0
711 712 -799 0
-711 712 799 0
711 -712 799 0
-711 -712 -799 0
713 714 -800 0
-713 714 800 0
713 -714 800 0
-713 -714 -800 0
715 716 -801 0
-715 716 801 0
715 -716 801 0
-715 -716 -801 0
717 718 -802 0
-717 718 802 0
717 -718 802 0
-717 -718 -802 0
719 720 -803 0
-719 720 803 0
719 -720 803 0
-719 -720 -803 0
721 722 -804 0
-721 722 804 0
721 -722 804 0
-721 -722 -804 0
723 724 -805 0
-723 724 805 0
723 -724 805 0
-723 -724 -805 0
725 726 -806 0
-725 726 806 0
725 -726 806 0
-725 -726 -806 0
727 728 -807 0
-727 728 807 0
727 -728 807 0
-727 -728 -807 0
729 730 -808 0
-729 730 808 0
729 -730 808 0
-729 -730 -808 0
731 732 -809 0
-731 732 809 0
731 -732 809 0
-731 -732 -809 0
733 734 -810 0
-733 734 810 0
733 -734 810 0
-733 -734 -810 0
735 736 -811 0
-735 736 811 0
735 -736 811 0
-735 -736 -811 0
737 738 -812 0
-737 738 812 0
737 -738 812 0
-737 -738 -812 0
739 740 -813 0
-739 740 813 0
739 -740 813 0
-739 -740 -813 0
741 742 -814 0
-741 742 814 0
741 -742 814 0
-741 -742 -814 0
743 744 -815 0
-743 744 815 0
743 -744 815 0
-743 -744 -815 0
745 746 -816 0
-745 746 816 0
745 -746 816 0
-745 -746 -816 0
747 748 -817 0
-747 748 817 0
747 -748 817 0
-747 -748 -817 0
749 750 -818 0
-749 750 818 0
749 -750 818 0
-749 -750 -818 0
751 752 -819 0
-751 752 819 0
751 -752 819 0
-751 -752 -819 0
753 754 -820 0
-753 754 820 0
753 -754 820 0
-753 -754 -820 0
755 756 -821 0
-755 756 821 0
755 -756 821 0
-755 -756 -821 0
757 758 -822 0
-757 758 822 0
757 -758 822 0
-757 -758 -822 0
759 760 -823 0
-759 760 823 0
759 -760 823 0
-759 -760 -823 0
761 762 -824 0
-761 762 824 0
761 -762 824 0
-761 -762 -824 0
763 764 -825 0
-763 764 825 0
763 -764 825 0
-763 -764 -825 0
765 766 -826 0
-765 766 826 0
765 -766 826 0
-765 -766 -826 0
767 768 -827 0
-767 768 827 0
767 -768 827 0
-767 -768 -827 0
769 770 -828 0
-769 770 828 0
769 -770 828 0
-769 -770 -828 0
771 772 -829 0
-771 772 829 0
771 -772 829 0
-771 -772 -829 0
773 774 -830 0
-773 774 830 0
773 -774 830 0
-773 -774 -830 0
775 776 -831 0
-775 776 831 0
775 -776 831 0
-775 -776 -831 0
777 778 -832 0
-777 778 832 0
777 -778 832 0
-777 -778 -832 0
779 780 -833 0
-779 780 833 0
779 -780 833 0
-779 -780 -833 0
781 782 -834 0
-781 782 834 0
781 -782 834 0
-781 -782 -834 0
783 784 -835 0
-783 784 835 0
783 -784 835 0
-783 -784 -835 0
785 786 -836 0
-785 786 836 0
785 -786 836 0
-785 -786 -836 0
787 788 -837 0
-787 788 837 0
787 -788 837 0
-787 -788 -837 0
789 790 -838 0
-789 790 838 0
789 -790 838 0
-789 -790 -838 0
791 792 -839 0
-791 792 839 0
791 -792 839 0
-791 -792 -839 0
793 794 -840 0
-793 794 840 0
793 -794 840 0
-793 -794 -840 0
795 796 -841 0
-795 796 841 0
795 -796 841 0
-795 -796 -841 0
797 798 -842 0
-797 798 842 0
797 -798 842 0
-797 -798 -842 0
799 800 -843 0
-799 800 843 0
799 -800 843 0
-799 -800 -843 0
801 802 -844 0
-801 802 844 0
801 -802 844 0
-801 -802 -844 0
803 804 -845 0
-803 804 845 0
803 -804 845 0
-803 -804 -845 0
805 806 -846 0
-805 806 846 0
805 -806 846 0
-805 -806 -846 0
807 808 -847 0
-807 808 847 0
807 -808 847 0
-807 -808 -847 0
809 810 -848 0
-809 810 848 0
809 -810 848 0
-809 -810 -848 0
811 812 -849 0
-811 812 849 0
811 -812 849 0
-811 -812 -849 0
813 814 -850 0
-813 814 850 0
813 -814 850 0
-813 -814 -850 0
815 816 -851 0
-815 816 851 0
815 -816 851 0
-815 -816 -851 0
817 818 -852 0
-817 818 852 0
817 -818 852 0
-817 -818 -852 0
819 820 -853 0
-819 820 853 0
819 -820 853 0
-819 -820 -853 0
821 822 -854 0
-821 822 854 0
821 -822 854 0
-821 -822 -854 0
823 824 -855 0
-823 824 855 0
823 -824 855 0
-823 -824 -855 0
825 826 -856 0
-825 826 856 0
825 -826 856 0
-825 -826 -856 0
827 828 -857 0
-827 828 857 0
827 -828 857 0
-827 -828 -857 0
829 830 -858 0
-829 830 858 0
829 -830 858 0
-829 -830 -858 0
831 666 -859 0
-831 666 859 0
831 -666 859 0
-831 -666 -859 0
832 833 -860 0
-832 833 860 0
832 -833 860 0
-832 -833 -860 0
834 835 -861 0
-834 835 861 0
834 -835 861 0
-834 -835 -861 0
836 837 -862 0
-836 837 862 0
836 -837 862 0
-836 -837 -862 0
838 839 -863 0
-838 839 863 0
838 -839 863 0
-838 -839 -863 0
840 841 -864 0
-840 841 864 0
840 -841 864 0
-840 -841 -864 0
842 843 -865 0
-842 843 865 0
842 -843 865 0
-842 -843 -865 0
844 845 -866 0
-844 845 866 0
844 -845 866 0
-844 -845 -866 0
846 847 -867 0
-846 847 867 0
846 -847 867 0
-846 -847 -867 0
848 849 -868 0
-848 849 868 0
848 -849 868 0
-848 -849 -868 0
850 851 -869 0
-850 851 869 0
850 -851 869 0
-850 -851 -869 0
852 853 -870 0
-852 853 870 0
852 -853 870 0
-852 -853 -870 0
854 855 -871 0
-854 855 871 0
854 -855 871 0
-854 -855 -871 0
856 857 -872 0
-856 857 872 0
856 -857 872 0
-856 -857 -872 0
858 859 -873 0
-858 859 873 0
858 -859 873 0
-858 -859 -873 0
860 861 -874 0
-860 861 874 0
860 -861 874 0
-860 -861 -874 0
862 863 -875 0
-862 863 875 0
862 -863 875 0
-862 -863 -875 0
864 865 -876 0
-864 865 876 0
864 -865 876 0
-864 -865 -876 0
866 867 -877 0
-866 867 877 0
866 -867 877 0
-866 -867 -877 0
868 869 -878 0
-868 869 878 0
868 -869 878 0
-868 -869 -878 0
870 871 -879 0
-870 871 879 0
870 -871 879 0
-870 -871 -879 0
872 873 -880 0
-872 873 880 0
872 -873 880 0
-872 -873 -880 0
874 875 -881 0
-874 875 881 0
874 -875 881 0
-874 -875 -881 0
876 877 -882 0
-876 877 882 0
876 -877 882 0
-876 -877 -882 0
878 879 -883 0
-878 879 883 0
878 -879 883 0
-878 -879 -883 0
881 882 -884 0
-881 882 884 0
881 -882 884 0
-881 -882 -884 0
883 880 -885 0
-883 880 885 0
883 -880 885 0
-883 -880 -885 0
884 885 -443 0
-884 885 443 0
884 -885 443 0
-884 -885 -443 0
